\ Model lp_peterson_form1
\ LP format - for model browsing. Use MPS format to capture full model detail.
Maximize
  x[0] + x[1] + x[2] + x[3] + x[4] + x[5] + x[6] + x[7] + x[8] + x[9]
   + 0 y[0,1] + 0 y[0,2] + 0 y[0,3] + 0 y[0,4] + 0 y[0,5] + 0 y[0,6]
   + 0 y[0,7] + 0 y[0,8] + 0 y[0,9] + 0 y[1,2] + 0 y[1,3] + 0 y[1,4]
   + 0 y[1,5] + 0 y[1,6] + 0 y[1,7] + 0 y[1,8] + 0 y[1,9] + 0 y[2,3]
   + 0 y[2,4] + 0 y[2,5] + 0 y[2,6] + 0 y[2,7] + 0 y[2,8] + 0 y[2,9]
   + 0 y[3,4] + 0 y[3,5] + 0 y[3,6] + 0 y[3,7] + 0 y[3,8] + 0 y[3,9]
   + 0 y[4,5] + 0 y[4,6] + 0 y[4,7] + 0 y[4,8] + 0 y[4,9] + 0 y[5,6]
   + 0 y[5,7] + 0 y[5,8] + 0 y[5,9] + 0 y[6,7] + 0 y[6,8] + 0 y[6,9]
   + 0 y[7,8] + 0 y[7,9] + 0 y[8,9]
Subject To
 R0: x[9] = 0
 R1: x[0] - x[1] + x[2] <= 1
 R2: x[0] + x[3] - x[4] <= 1
 R3: x[0] - x[1] + x[6] <= 1
 R4: x[0] - x[5] + x[7] <= 1
 R5: x[0] - x[5] + x[8] <= 1
 R6: x[0] - x[4] + x[9] <= 1
 R7: x[1] - x[2] + x[3] <= 1
 R8: - x[0] + x[1] + x[4] <= 1
 R9: - x[0] + x[1] + x[5] <= 1
 R10: x[1] - x[2] + x[7] <= 1
 R11: x[1] - x[6] + x[8] <= 1
 R12: x[1] - x[6] + x[9] <= 1
 R13: x[2] - x[3] + x[4] <= 1
 R14: x[2] + x[5] - x[7] <= 1
 R15: - x[1] + x[2] + x[6] <= 1
 R16: x[2] - x[3] + x[8] <= 1
 R17: x[2] - x[7] + x[9] <= 1
 R18: x[3] + x[5] - x[8] <= 1
 R19: x[3] + x[6] - x[8] <= 1
 R20: - x[2] + x[3] + x[7] <= 1
 R21: x[3] - x[4] + x[9] <= 1
 R22: - x[0] + x[4] + x[5] <= 1
 R23: x[4] + x[6] - x[9] <= 1
 R24: x[4] + x[7] - x[9] <= 1
 R25: - x[3] + x[4] + x[8] <= 1
 R26: x[5] + x[6] - x[8] <= 1
 R27: x[5] - x[7] + x[9] <= 1
 R28: x[6] + x[7] - x[9] <= 1
 R29: - x[5] + x[7] + x[8] <= 1
 R30: - x[6] + x[8] + x[9] <= 1
 R31: - 2 x[0] + x[5] <= 1
 R32: x[0] - 2 x[1] <= 1
 R33: x[1] - 2 x[2] <= 1
 R34: x[2] - 2 x[3] <= 1
 R35: - 2 x[4] + x[9] <= 1
 R36: x[0] - 2 x[5] <= 1
 R37: x[1] - 2 x[6] <= 1
 R38: - 2 x[7] + x[9] <= 1
 R39: x[3] - 2 x[8] <= 1
 R40: x[6] <= 1
Bounds
 x[0] <= 1
 x[1] <= 1
 x[2] <= 1
 x[3] <= 1
 x[4] <= 1
 x[5] <= 1
 x[6] <= 1
 x[7] <= 1
 x[8] <= 1
 x[9] <= 1
End
